1000
[205,208,209,210,212,223,224,235,236,237,241,243,248,253,254,274,275,290,293,303,304,313,327,331,336,337,341,346,352,359,362,365,368,370,371,373,376,377,379,384,385,388,389,392,397,399,406,408,413,420,429,431,452,453,456,481,482,483,489,500,502,512,515,523,538,555,565,569,576,582,584,589,592,593,597,600,602,611,612,617,626,628,638,640,642,643,668,676,686,693,698]
[1,1,1,1,1,1,1,2,1,1,1,1,1,1,1,1,1,3,1,1,1,1,1,1,1,1,1,1,1,1,2,1,1,1,1,1,1,1,1,1,1,1,1,1,1,1,1,2,1,1,1,1,1,1,1,1,1,2,1,1,1,1,2,1,1,1,2,1,1,1,1,1,1,1,1,1,1,1,1,1,1,1,1,1,1,1,1,1,2,1,1]
